job_count = 24 ;
duration = [|4, 8|4, 7|9, 5|18, 9|3, 2|11, 5|16, 4|16, 4|3, 1|7, 4|10, 4|12, 2|14, 4|4, 1|7, 5|10, 4|15, 6|4, 6|8, 7|2, 6|18, 4|6, 1|9, 1|14, 1|] ;
machine_count = 2 ;
cost = [|14, 33|14, 27|16, 22|16, 26|18, 26|17, 29|19, 32|13, 22|14, 39|18, 28|15, 21|18, 32|11, 24|14, 20|15, 23|15, 29|12, 38|14, 38|16, 36|19, 37|12, 38|17, 23|17, 25|18, 31|] ;
deadline = [60, 60, 60, 60, 60, 60, 60, 60, 60, 60, 60, 60, 60, 60, 60, 60, 60, 60, 60, 60, 60, 60, 60, 60] ;
release = [0, 0, 0, 0, 0, 0, 0, 0, 0, 0, 0, 0, 0, 0, 0, 0, 0, 0, 0, 0, 0, 0, 0, 0] ;
resource = [|4, 4|6, 6|4, 4|1, 1|9, 9|8, 8|8, 8|7, 7|7, 7|5, 5|4, 4|5, 5|2, 2|9, 9|7, 7|1, 1|1, 1|4, 4|6, 6|8, 8|6, 6|4, 4|3, 3|9, 9|] ;
capacities = [10, 10] ;
